
Log started (V11.0.0) Tue May 13 12:10:17 2008

Tried aggregator 1 time.
Reduced MIP has 110 rows, 1001 columns, and 2010 nonzeros.
Presolve time =   -0.00 sec.
Clique table members: 100.
MIP emphasis: balance optimality and feasibility.
MIP search method: dynamic search.
Parallel mode: none, using 1 thread.
Root relaxation solution time =    0.02 sec.

        Nodes                                         Cuts/
   Node  Left     Objective  IInf  Best Integer     Best Node    ItCnt     Gap

*     0+    0                        11016.0000     1013.9837      150   90.80%
*     0+    0                         1023.0000     1013.9837      150    0.88%
      0     0     1014.1123    21     1023.0000      Fract: 7      168    0.87%
*     0+    0                         1019.0000     1014.1123      168    0.48%
      0     0     1014.4485    33     1019.0000       Cuts: 7      198    0.45%
      0     0     1014.4928    35     1019.0000    MIRcuts: 3      213    0.44%
      0     0     1014.5187    39     1019.0000       Cuts: 3      224    0.44%
      0     0     1014.5266    44     1019.0000       Cuts: 3      234    0.44%
*     0+    0                         1018.0000     1014.5266      234    0.34%
*     0+    0                         1016.0000     1014.5266      234    0.15%

Repeating presolve.
Tried aggregator 1 time.
MIP Presolve eliminated 2 rows and 603 columns.
Aggregator did 12 substitutions.
Reduced MIP has 96 rows, 386 columns, and 772 nonzeros.
Tried aggregator 1 time.
Represolve time =    0.02 sec.
Clique table members: 86.
MIP emphasis: balance optimality and feasibility.
MIP search method: dynamic search.
Parallel mode: none, using 1 thread.
Root relaxation solution time =    0.00 sec.

        Nodes                                         Cuts/
   Node  Left     Objective  IInf  Best Integer     Best Node    ItCnt     Gap

      0     0     1015.0000    30     1016.0000     1015.0000      196    0.10%
      0     2     1015.0000    30     1016.0000     1015.0000      196    0.10%
    100    44    infeasible           1016.0000     1015.0000     2880    0.10%
    200    50    infeasible           1016.0000     1015.0000    10202    0.10%
    300    66     1015.0000    27     1016.0000     1015.0000    19902    0.10%
    400    86    infeasible           1016.0000     1015.0000    28221    0.10%
    500    76     1015.0000    18     1016.0000     1015.0000    40408    0.10%
    600    77     1015.0000    28     1016.0000     1015.0000    42196    0.10%
    700   105    infeasible           1016.0000     1015.0000    47861    0.10%
    800    61    infeasible           1016.0000     1015.0000    59655    0.10%
    900    33     1015.0002    56     1016.0000     1015.0000    73389    0.10%
   1000    56    infeasible           1016.0000     1015.0000    89591    0.10%
Elapsed time =   7.33 sec. (tree size =  0.02 MB, solutions = 5)
   1100    74    infeasible           1016.0000     1015.0000   107244    0.10%
   1200    78     1015.0000    52     1016.0000     1015.0000   127382    0.10%
   1300    74     1015.0000    47     1016.0000     1015.0000   149351    0.10%
   1400    39    infeasible           1016.0000     1015.0000   171690    0.10%
   1500    45     1015.0000    58     1016.0000     1015.0000   191913    0.10%
*  1531     0      integral     0     1015.0000     1015.0000   197951    0.00%

Cover cuts applied:  400
Mixed integer rounding cuts applied:  1
Gomory fractional cuts applied:  16

Solution pool: 6 solutions saved.

MIP - Integer optimal solution:  Objective = 1.0150000000e+003
Solution time =   20.80 sec.  Iterations = 197951  Nodes = 1532


Incumbent solution
Variable Name           Solution Value
Cmax                       1015.000000
X_1_8                         1.000000
X_2_1                         1.000000
X_3_4                         1.000000
X_4_8                         1.000000
X_5_7                         1.000000
X_6_9                         1.000000
X_7_7                         1.000000
X_8_10                        1.000000
X_9_4                         1.000000
X_10_2                        1.000000
X_11_1                        1.000000
X_12_5                        1.000000
X_13_9                        1.000000
X_14_10                       1.000000
X_15_8                        1.000000
X_16_9                        1.000000
X_17_3                        1.000000
X_18_6                        1.000000
X_19_2                        1.000000
X_20_5                        1.000000
X_21_1                        1.000000
X_22_7                        1.000000
X_23_5                        1.000000
X_24_9                        1.000000
X_25_7                        1.000000
X_26_4                        1.000000
X_27_6                        1.000000
X_28_8                        1.000000
X_29_9                        1.000000
X_30_10                       1.000000
X_31_5                        1.000000
X_32_6                        1.000000
X_33_3                        1.000000
X_34_8                        1.000000
X_35_7                        1.000000
X_36_3                        1.000000
X_37_8                        1.000000
X_38_2                        1.000000
X_39_1                        1.000000
X_40_6                        1.000000
X_41_4                        1.000000
X_42_10                       1.000000
X_43_1                        1.000000
X_44_7                        1.000000
X_45_3                        1.000000
X_46_9                        1.000000
X_47_10                       1.000000
X_48_2                        1.000000
X_49_6                        1.000000
X_50_10                       1.000000
X_51_7                        1.000000
X_52_2                        1.000000
X_53_4                        1.000000
X_54_3                        1.000000
X_55_10                       1.000000
X_56_9                        1.000000
X_57_5                        1.000000
X_58_3                        1.000000
X_59_3                        1.000000
X_60_6                        1.000000
X_61_1                        1.000000
X_62_5                        1.000000
X_63_6                        1.000000
X_64_1                        1.000000
X_65_5                        1.000000
X_66_2                        1.000000
X_67_1                        1.000000
X_68_8                        1.000000
X_69_1                        1.000000
X_70_7                        1.000000
X_71_7                        1.000000
X_72_6                        1.000000
X_73_4                        1.000000
X_74_2                        1.000000
X_75_10                       1.000000
X_76_9                        1.000000
X_77_2                        1.000000
X_78_8                        1.000000
X_79_4                        1.000000
X_80_5                        1.000000
X_81_4                        1.000000
X_82_4                        1.000000
X_83_4                        1.000000
X_84_3                        1.000000
X_85_8                        1.000000
X_86_3                        1.000000
X_87_5                        1.000000
X_88_8                        1.000000
X_89_5                        1.000000
X_90_10                       1.000000
X_91_7                        1.000000
X_92_6                        1.000000
X_93_1                        1.000000
X_94_10                       1.000000
X_95_9                        1.000000
X_96_3                        1.000000
X_97_2                        1.000000
X_98_6                        1.000000
X_99_9                        1.000000
X_100_2                       1.000000
All other variables in the range 1-1001 are 0.
